import psi4

# Set memory and output.
psi4.set_memory('500 MB')
psi4.core.set_output_file('H2O..H2O_907_HF_output.dat', False)

# Set options for HF counterpoise calculation:
psi4.set_options({
    'basis': 'aug-cc-pVTZ',
    'scf_type': 'pk',
    'freeze_core': True,
    'e_convergence': 1e-9,
    'd_convergence': 1e-8,
    # Optionally, you might adjust cp-specific options:
    # 'cp_maxiter': 50,
})

# Define the dimer as a counterpoise molecule. The '--' separates the monomer fragments.
molecule {
units Bohr
no_com
no_reorient
0 1
--
0 1
   O1              0.00000000       0.00000000       0.00000000
   H1             -1.45365196       0.00000000      -1.12168732
   H2              1.45365196       0.00000000      -1.12168732
--
0 1
   O1             -4.83352211       0.00000000      -2.93491622
   H1             -5.87685543       1.45365242      -2.52304646
   H2             -5.87685791      -1.45365150      -2.52304951
}

# Perform a supramolecular HF energy calculation using counterpoise correction.
# This will compute the dimer energy and the monomer energies and print the CP-corrected interaction energy.
energy('SCF/cp')
